NAME : sim161.128524.tour
COMMENT : Length = 128524
COMMENT : Found by LKH [Keld Helsgaun] Mon Sep 17 04:55:27 2018
TYPE : TOUR
DIMENSION : 161
TOUR_SECTION
1
36
117
57
137
158
21
18
58
68
140
118
13
46
43
114
30
122
92
50
109
25
131
31
37
156
145
33
135
53
85
106
108
95
2
74
119
100
51
115
12
128
107
102
123
22
96
5
70
15
34
24
155
98
42
144
160
11
129
20
4
83
75
103
94
97
9
44
48
86
84
35
89
17
80
63
19
134
55
10
121
41
101
82
29
93
79
54
64
139
3
120
126
87
26
62
23
161
71
150
67
61
149
151
111
65
59
8
136
38
153
78
73
69
147
81
47
45
88
142
116
132
52
49
113
14
141
143
6
110
125
157
72
112
60
28
104
77
32
7
130
105
39
40
27
124
154
152
138
90
66
133
91
146
127
159
56
16
76
99
148
-1
EOF
